c numero: 84
c nombre: n-60-d-0.5
c densidad: 0.5
p edges 60 887
e 1 2
e 1 5
e 1 7
e 1 9
e 1 10
e 1 11
e 1 12
e 1 13
e 1 14
e 1 17
e 1 18
e 1 23
e 1 25
e 1 26
e 1 29
e 1 32
e 1 33
e 1 35
e 1 36
e 1 37
e 1 40
e 1 42
e 1 46
e 1 48
e 1 52
e 1 53
e 1 55
e 1 57
e 1 59
e 1 60
e 2 7
e 2 9
e 2 11
e 2 12
e 2 13
e 2 14
e 2 15
e 2 17
e 2 18
e 2 20
e 2 21
e 2 22
e 2 26
e 2 28
e 2 31
e 2 33
e 2 38
e 2 40
e 2 42
e 2 43
e 2 44
e 2 45
e 2 48
e 2 51
e 2 53
e 2 54
e 2 56
e 2 57
e 2 58
e 2 59
e 2 60
e 3 4
e 3 5
e 3 6
e 3 7
e 3 8
e 3 9
e 3 10
e 3 12
e 3 13
e 3 14
e 3 15
e 3 16
e 3 17
e 3 18
e 3 20
e 3 21
e 3 24
e 3 25
e 3 28
e 3 32
e 3 33
e 3 34
e 3 35
e 3 37
e 3 40
e 3 41
e 3 44
e 3 47
e 3 48
e 3 49
e 3 51
e 3 54
e 3 55
e 3 56
e 3 57
e 4 7
e 4 8
e 4 13
e 4 15
e 4 17
e 4 20
e 4 22
e 4 23
e 4 24
e 4 25
e 4 28
e 4 29
e 4 30
e 4 31
e 4 35
e 4 37
e 4 41
e 4 44
e 4 45
e 4 47
e 4 48
e 4 52
e 4 54
e 4 55
e 4 56
e 4 58
e 4 59
e 4 60
e 5 6
e 5 7
e 5 9
e 5 10
e 5 11
e 5 16
e 5 18
e 5 19
e 5 20
e 5 21
e 5 22
e 5 23
e 5 26
e 5 27
e 5 28
e 5 29
e 5 30
e 5 32
e 5 33
e 5 34
e 5 35
e 5 37
e 5 39
e 5 41
e 5 45
e 5 46
e 5 47
e 5 48
e 5 50
e 5 52
e 5 53
e 5 56
e 5 57
e 5 58
e 5 60
e 6 8
e 6 9
e 6 10
e 6 11
e 6 16
e 6 17
e 6 21
e 6 22
e 6 23
e 6 24
e 6 25
e 6 30
e 6 33
e 6 36
e 6 37
e 6 39
e 6 45
e 6 46
e 6 48
e 6 49
e 6 51
e 6 55
e 6 56
e 6 57
e 6 59
e 6 60
e 7 8
e 7 10
e 7 13
e 7 15
e 7 19
e 7 20
e 7 21
e 7 22
e 7 27
e 7 28
e 7 29
e 7 30
e 7 33
e 7 34
e 7 35
e 7 36
e 7 37
e 7 39
e 7 40
e 7 42
e 7 46
e 7 50
e 7 51
e 7 52
e 7 53
e 7 55
e 7 59
e 8 10
e 8 13
e 8 14
e 8 15
e 8 16
e 8 19
e 8 22
e 8 24
e 8 25
e 8 26
e 8 28
e 8 34
e 8 36
e 8 39
e 8 40
e 8 41
e 8 43
e 8 44
e 8 47
e 8 49
e 8 51
e 8 55
e 8 56
e 8 57
e 8 58
e 9 10
e 9 11
e 9 14
e 9 15
e 9 17
e 9 18
e 9 21
e 9 24
e 9 28
e 9 35
e 9 38
e 9 39
e 9 41
e 9 43
e 9 51
e 9 53
e 9 54
e 9 55
e 9 58
e 10 11
e 10 12
e 10 20
e 10 22
e 10 25
e 10 30
e 10 31
e 10 33
e 10 34
e 10 35
e 10 37
e 10 38
e 10 39
e 10 41
e 10 42
e 10 43
e 10 45
e 10 46
e 10 49
e 10 50
e 10 57
e 10 58
e 10 59
e 11 16
e 11 19
e 11 20
e 11 22
e 11 24
e 11 26
e 11 27
e 11 29
e 11 30
e 11 31
e 11 32
e 11 33
e 11 35
e 11 41
e 11 42
e 11 43
e 11 46
e 11 50
e 11 51
e 11 53
e 11 57
e 11 60
e 12 13
e 12 16
e 12 18
e 12 20
e 12 23
e 12 25
e 12 28
e 12 32
e 12 33
e 12 34
e 12 36
e 12 37
e 12 39
e 12 42
e 12 45
e 12 47
e 12 50
e 12 51
e 12 54
e 12 58
e 13 14
e 13 17
e 13 18
e 13 21
e 13 22
e 13 25
e 13 26
e 13 29
e 13 32
e 13 33
e 13 35
e 13 36
e 13 40
e 13 41
e 13 42
e 13 43
e 13 45
e 13 46
e 13 49
e 13 51
e 13 52
e 13 53
e 13 54
e 13 55
e 13 56
e 13 59
e 14 20
e 14 21
e 14 22
e 14 26
e 14 27
e 14 28
e 14 29
e 14 31
e 14 32
e 14 33
e 14 35
e 14 37
e 14 39
e 14 40
e 14 43
e 14 44
e 14 53
e 14 57
e 14 59
e 14 60
e 15 16
e 15 17
e 15 20
e 15 21
e 15 23
e 15 28
e 15 34
e 15 35
e 15 36
e 15 37
e 15 38
e 15 39
e 15 41
e 15 42
e 15 43
e 15 44
e 15 48
e 15 49
e 15 50
e 15 51
e 15 52
e 15 54
e 15 56
e 15 58
e 16 17
e 16 19
e 16 21
e 16 22
e 16 24
e 16 26
e 16 27
e 16 30
e 16 32
e 16 34
e 16 35
e 16 36
e 16 38
e 16 43
e 16 44
e 16 45
e 16 48
e 16 50
e 16 55
e 16 56
e 16 58
e 16 59
e 17 19
e 17 20
e 17 21
e 17 24
e 17 25
e 17 26
e 17 27
e 17 32
e 17 35
e 17 37
e 17 38
e 17 39
e 17 40
e 17 43
e 17 44
e 17 48
e 17 49
e 17 52
e 17 53
e 17 54
e 17 57
e 17 60
e 18 20
e 18 21
e 18 22
e 18 23
e 18 27
e 18 30
e 18 32
e 18 33
e 18 34
e 18 40
e 18 41
e 18 44
e 18 45
e 18 46
e 18 47
e 18 49
e 18 51
e 18 56
e 18 59
e 18 60
e 19 24
e 19 25
e 19 29
e 19 30
e 19 31
e 19 32
e 19 33
e 19 34
e 19 36
e 19 37
e 19 45
e 19 47
e 19 49
e 19 51
e 19 53
e 19 54
e 19 56
e 19 57
e 19 59
e 19 60
e 20 21
e 20 24
e 20 26
e 20 28
e 20 30
e 20 31
e 20 35
e 20 36
e 20 41
e 20 42
e 20 46
e 20 47
e 20 49
e 20 51
e 20 52
e 20 53
e 20 58
e 20 59
e 21 23
e 21 24
e 21 29
e 21 30
e 21 31
e 21 32
e 21 37
e 21 38
e 21 41
e 21 42
e 21 43
e 21 45
e 21 47
e 21 48
e 21 50
e 21 51
e 21 52
e 21 53
e 21 57
e 21 58
e 21 59
e 22 25
e 22 26
e 22 27
e 22 29
e 22 30
e 22 33
e 22 34
e 22 35
e 22 36
e 22 39
e 22 40
e 22 44
e 22 45
e 22 47
e 22 49
e 22 50
e 22 52
e 22 53
e 22 54
e 22 56
e 22 58
e 22 59
e 23 25
e 23 28
e 23 30
e 23 31
e 23 32
e 23 33
e 23 35
e 23 36
e 23 37
e 23 39
e 23 43
e 23 44
e 23 47
e 23 48
e 23 51
e 23 55
e 23 58
e 23 59
e 23 60
e 24 25
e 24 26
e 24 31
e 24 32
e 24 35
e 24 36
e 24 38
e 24 39
e 24 40
e 24 41
e 24 43
e 24 48
e 24 49
e 24 51
e 24 52
e 24 54
e 24 55
e 24 56
e 24 59
e 25 27
e 25 28
e 25 29
e 25 30
e 25 31
e 25 35
e 25 39
e 25 43
e 25 44
e 25 45
e 25 46
e 25 47
e 25 48
e 25 52
e 25 55
e 26 30
e 26 33
e 26 37
e 26 38
e 26 41
e 26 45
e 26 47
e 26 48
e 26 49
e 26 50
e 26 51
e 26 55
e 26 56
e 26 58
e 26 59
e 26 60
e 27 31
e 27 32
e 27 37
e 27 38
e 27 39
e 27 40
e 27 41
e 27 45
e 27 47
e 27 51
e 27 52
e 27 53
e 27 54
e 27 55
e 27 56
e 27 57
e 27 58
e 27 59
e 27 60
e 28 29
e 28 30
e 28 33
e 28 34
e 28 38
e 28 42
e 28 44
e 28 45
e 28 49
e 28 50
e 28 51
e 28 52
e 28 53
e 28 54
e 28 58
e 28 59
e 29 30
e 29 35
e 29 36
e 29 38
e 29 39
e 29 41
e 29 43
e 29 46
e 29 51
e 29 52
e 29 53
e 29 54
e 29 55
e 29 56
e 29 57
e 29 58
e 29 59
e 30 34
e 30 39
e 30 40
e 30 41
e 30 45
e 30 47
e 30 48
e 30 49
e 30 52
e 30 53
e 30 56
e 30 57
e 30 60
e 31 33
e 31 34
e 31 35
e 31 37
e 31 38
e 31 39
e 31 42
e 31 43
e 31 44
e 31 45
e 31 49
e 31 52
e 31 54
e 31 55
e 31 57
e 31 60
e 32 33
e 32 37
e 32 38
e 32 39
e 32 40
e 32 41
e 32 43
e 32 45
e 32 46
e 32 47
e 32 48
e 32 49
e 32 50
e 32 57
e 32 58
e 32 59
e 32 60
e 33 37
e 33 38
e 33 39
e 33 43
e 33 45
e 33 47
e 33 48
e 33 51
e 33 52
e 33 53
e 33 54
e 33 57
e 34 38
e 34 42
e 34 43
e 34 44
e 34 48
e 34 55
e 34 56
e 35 36
e 35 37
e 35 38
e 35 40
e 35 43
e 35 45
e 35 47
e 35 48
e 35 50
e 35 51
e 35 52
e 35 53
e 35 56
e 35 57
e 35 59
e 35 60
e 36 37
e 36 38
e 36 41
e 36 43
e 36 46
e 36 48
e 36 49
e 36 50
e 36 51
e 36 52
e 36 54
e 36 58
e 36 59
e 36 60
e 37 40
e 37 41
e 37 43
e 37 50
e 37 51
e 37 54
e 37 55
e 37 57
e 37 59
e 38 39
e 38 40
e 38 43
e 38 44
e 38 46
e 38 47
e 38 49
e 38 50
e 38 52
e 38 54
e 38 55
e 38 56
e 38 57
e 38 59
e 38 60
e 39 40
e 39 41
e 39 44
e 39 45
e 39 46
e 39 47
e 39 48
e 39 56
e 39 57
e 39 58
e 39 60
e 40 41
e 40 42
e 40 43
e 40 45
e 40 49
e 40 50
e 40 51
e 40 52
e 40 54
e 40 55
e 40 56
e 40 59
e 40 60
e 41 42
e 41 48
e 41 50
e 41 52
e 41 53
e 41 58
e 42 45
e 42 49
e 42 51
e 42 57
e 43 44
e 43 45
e 43 49
e 43 51
e 43 55
e 43 57
e 43 59
e 43 60
e 44 47
e 44 48
e 44 50
e 44 52
e 44 53
e 44 56
e 44 57
e 44 59
e 44 60
e 45 47
e 45 48
e 45 51
e 45 56
e 45 59
e 46 47
e 46 49
e 46 52
e 46 53
e 46 54
e 46 57
e 47 48
e 47 49
e 47 51
e 47 52
e 47 56
e 47 58
e 47 59
e 48 49
e 48 50
e 48 51
e 48 52
e 48 53
e 48 54
e 48 55
e 48 56
e 48 59
e 48 60
e 49 50
e 49 51
e 49 52
e 49 53
e 49 54
e 49 55
e 49 56
e 49 58
e 49 59
e 49 60
e 50 52
e 50 54
e 50 57
e 50 59
e 50 60
e 51 53
e 51 56
e 51 59
e 51 60
e 52 54
e 52 56
e 52 58
e 53 56
e 53 60
e 54 56
e 54 57
e 54 58
e 54 59
e 54 60
e 56 59
e 57 59
e 57 60
